unsat
(define-fun f ((x (_ BitVec 64))) (_ BitVec 64) (im (bvand #b0000000000000000000000000000000000000000000000000000000000000001 (bvnot x)) (ehad (bvand x (shesh x))) (smol x)))
0.06user 0.00system 0:00.06elapsed 100%CPU (0avgtext+0avgdata 27836maxresident)k
0inputs+8outputs (0major+1594minor)pagefaults 0swaps
